p wcnf 396 1064
w -2 0.367879 0
w 2 2.718282 0
w -3 0.367879 0
w 3 2.718282 0
w -4 0.367879 0
w 4 2.718282 0
w -5 0.367879 0
w 5 2.718282 0
w -7 0.367879 0
w 7 2.718282 0
w -8 0.367879 0
w 8 2.718282 0
w -9 0.367879 0
w 9 2.718282 0
w -10 0.367879 0
w 10 2.718282 0
w -12 0.367879 0
w 12 2.718282 0
w -13 0.367879 0
w 13 2.718282 0
w -14 0.367879 0
w 14 2.718282 0
w -16 0.367879 0
w 16 2.718282 0
w -17 0.367879 0
w 17 2.718282 0
w -18 0.367879 0
w 18 2.718282 0
w -19 0.367879 0
w 19 2.718282 0
w -20 0.367879 0
w 20 2.718282 0
w -21 0.367879 0
w 21 2.718282 0
w -22 0.367879 0
w 22 2.718282 0
w -23 0.367879 0
w 23 2.718282 0
w -25 0.367879 0
w 25 2.718282 0
w -26 0.367879 0
w 26 2.718282 0
w -27 0.367879 0
w 27 2.718282 0
w -28 0.367879 0
w 28 2.718282 0
w -29 0.367879 0
w 29 2.718282 0
w -30 0.367879 0
w 30 2.718282 0
w -32 0.367879 0
w 32 2.718282 0
w -33 0.367879 0
w 33 2.718282 0
w -34 0.367879 0
w 34 2.718282 0
w -35 0.367879 0
w 35 2.718282 0
w -37 0.367879 0
w 37 2.718282 0
w -38 0.367879 0
w 38 2.718282 0
w -40 0.367879 0
w 40 2.718282 0
w -41 0.367879 0
w 41 2.718282 0
w -43 0.367879 0
w 43 2.718282 0
w -44 0.367879 0
w 44 2.718282 0
w -45 0.367879 0
w 45 2.718282 0
w -46 0.367879 0
w 46 2.718282 0
w -48 0.367879 0
w 48 2.718282 0
w -49 0.367879 0
w 49 2.718282 0
w -51 0.367879 0
w 51 2.718282 0
w -52 0.367879 0
w 52 2.718282 0
w -53 0.367879 0
w 53 2.718282 0
w -54 0.367879 0
w 54 2.718282 0
w -55 0.367879 0
w 55 2.718282 0
w -57 0.367879 0
w 57 2.718282 0
w -58 0.367879 0
w 58 2.718282 0
w -59 0.367879 0
w 59 2.718282 0
w -60 0.367879 0
w 60 2.718282 0
w -62 0.367879 0
w 62 2.718282 0
w -63 0.367879 0
w 63 2.718282 0
w -64 0.367879 0
w 64 2.718282 0
w -65 0.367879 0
w 65 2.718282 0
w -66 0.367879 0
w 66 2.718282 0
w -68 0.367879 0
w 68 2.718282 0
w -69 0.367879 0
w 69 2.718282 0
w -70 0.367879 0
w 70 2.718282 0
w -72 0.367879 0
w 72 2.718282 0
w -73 0.367879 0
w 73 2.718282 0
w -76 0.367879 0
w 76 2.718282 0
w -77 0.367879 0
w 77 2.718282 0
w -78 0.367879 0
w 78 2.718282 0
w -79 0.367879 0
w 79 2.718282 0
w -80 0.367879 0
w 80 2.718282 0
w -81 0.367879 0
w 81 2.718282 0
w -83 0.367879 0
w 83 2.718282 0
w -84 0.367879 0
w 84 2.718282 0
w -85 0.367879 0
w 85 2.718282 0
w -86 0.367879 0
w 86 2.718282 0
w -87 0.367879 0
w 87 2.718282 0
w -89 0.367879 0
w 89 2.718282 0
w -90 0.367879 0
w 90 2.718282 0
w -92 0.367879 0
w 92 2.718282 0
w -93 0.367879 0
w 93 2.718282 0
w -94 0.367879 0
w 94 2.718282 0
w -95 0.367879 0
w 95 2.718282 0
w -96 0.367879 0
w 96 2.718282 0
w -98 0.367879 0
w 98 2.718282 0
w -99 0.367879 0
w 99 2.718282 0
w -100 0.367879 0
w 100 2.718282 0
w -101 0.367879 0
w 101 2.718282 0
w -103 0.367879 0
w 103 2.718282 0
w -104 0.367879 0
w 104 2.718282 0
w -105 0.367879 0
w 105 2.718282 0
w -107 0.367879 0
w 107 2.718282 0
w -108 0.367879 0
w 108 2.718282 0
w -110 0.367879 0
w 110 2.718282 0
w -111 0.367879 0
w 111 2.718282 0
w -113 0.367879 0
w 113 2.718282 0
w -114 0.367879 0
w 114 2.718282 0
w -115 0.367879 0
w 115 2.718282 0
w -116 0.367879 0
w 116 2.718282 0
w -117 0.367879 0
w 117 2.718282 0
w -119 0.367879 0
w 119 2.718282 0
w -120 0.367879 0
w 120 2.718282 0
w -121 0.367879 0
w 121 2.718282 0
w -122 0.367879 0
w 122 2.718282 0
w -124 0.367879 0
w 124 2.718282 0
w -125 0.367879 0
w 125 2.718282 0
w -126 0.367879 0
w 126 2.718282 0
w -127 0.367879 0
w 127 2.718282 0
w -128 0.367879 0
w 128 2.718282 0
w -129 0.367879 0
w 129 2.718282 0
w -132 0.367879 0
w 132 2.718282 0
w -134 0.367879 0
w 134 2.718282 0
w -136 0.367879 0
w 136 2.718282 0
w -137 0.367879 0
w 137 2.718282 0
w -139 0.367879 0
w 139 2.718282 0
w -140 0.367879 0
w 140 2.718282 0
w -141 0.367879 0
w 141 2.718282 0
w -142 0.367879 0
w 142 2.718282 0
w -144 0.367879 0
w 144 2.718282 0
w -145 0.367879 0
w 145 2.718282 0
w -146 0.367879 0
w 146 2.718282 0
w -148 0.367879 0
w 148 2.718282 0
w -149 0.367879 0
w 149 2.718282 0
w -150 0.367879 0
w 150 2.718282 0
w -151 0.367879 0
w 151 2.718282 0
w -152 0.367879 0
w 152 2.718282 0
w -154 0.367879 0
w 154 2.718282 0
w -155 0.367879 0
w 155 2.718282 0
w -156 0.367879 0
w 156 2.718282 0
w -157 0.367879 0
w 157 2.718282 0
w -159 0.367879 0
w 159 2.718282 0
w -160 0.367879 0
w 160 2.718282 0
w -162 0.367879 0
w 162 2.718282 0
w -163 0.367879 0
w 163 2.718282 0
w -165 0.367879 0
w 165 2.718282 0
w -166 0.367879 0
w 166 2.718282 0
w -167 0.367879 0
w 167 2.718282 0
w -168 0.367879 0
w 168 2.718282 0
w -170 0.367879 0
w 170 2.718282 0
w -171 0.367879 0
w 171 2.718282 0
w -172 0.367879 0
w 172 2.718282 0
w -173 0.367879 0
w 173 2.718282 0
w -175 0.367879 0
w 175 2.718282 0
w -176 0.367879 0
w 176 2.718282 0
w -177 0.367879 0
w 177 2.718282 0
w -178 0.367879 0
w 178 2.718282 0
w -179 0.367879 0
w 179 2.718282 0
w -181 0.367879 0
w 181 2.718282 0
w -182 0.367879 0
w 182 2.718282 0
w -183 0.367879 0
w 183 2.718282 0
w -185 0.367879 0
w 185 2.718282 0
w -186 0.367879 0
w 186 2.718282 0
w -187 0.367879 0
w 187 2.718282 0
w -189 0.367879 0
w 189 2.718282 0
w -190 0.367879 0
w 190 2.718282 0
w -191 0.367879 0
w 191 2.718282 0
w -192 0.367879 0
w 192 2.718282 0
w -193 0.367879 0
w 193 2.718282 0
w -195 0.367879 0
w 195 2.718282 0
w -196 0.367879 0
w 196 2.718282 0
w -197 0.367879 0
w 197 2.718282 0
w -198 0.367879 0
w 198 2.718282 0
w -200 0.367879 0
w 200 2.718282 0
w -201 0.367879 0
w 201 2.718282 0
w -203 0.367879 0
w 203 2.718282 0
w -204 0.367879 0
w 204 2.718282 0
w -205 0.367879 0
w 205 2.718282 0
w -207 0.367879 0
w 207 2.718282 0
w -208 0.367879 0
w 208 2.718282 0
w -210 0.367879 0
w 210 2.718282 0
w -211 0.367879 0
w 211 2.718282 0
w -212 0.367879 0
w 212 2.718282 0
w -214 0.367879 0
w 214 2.718282 0
w -216 0.367879 0
w 216 2.718282 0
w -217 0.367879 0
w 217 2.718282 0
w -218 0.367879 0
w 218 2.718282 0
w -219 0.367879 0
w 219 2.718282 0
w -222 0.367879 0
w 222 2.718282 0
w -224 0.367879 0
w 224 2.718282 0
w -225 0.367879 0
w 225 2.718282 0
w -226 0.367879 0
w 226 2.718282 0
w -227 0.367879 0
w 227 2.718282 0
w -228 0.367879 0
w 228 2.718282 0
w -230 0.367879 0
w 230 2.718282 0
w -231 0.367879 0
w 231 2.718282 0
w -232 0.367879 0
w 232 2.718282 0
w -233 0.367879 0
w 233 2.718282 0
w -234 0.367879 0
w 234 2.718282 0
w -236 0.367879 0
w 236 2.718282 0
w -238 0.367879 0
w 238 2.718282 0
w -239 0.367879 0
w 239 2.718282 0
w -241 0.367879 0
w 241 2.718282 0
w -242 0.367879 0
w 242 2.718282 0
w -243 0.367879 0
w 243 2.718282 0
w -244 0.367879 0
w 244 2.718282 0
w -246 0.367879 0
w 246 2.718282 0
w -247 0.367879 0
w 247 2.718282 0
w -248 0.367879 0
w 248 2.718282 0
w -251 0.367879 0
w 251 2.718282 0
w -253 0.367879 0
w 253 2.718282 0
w -255 0.367879 0
w 255 2.718282 0
w -257 0.367879 0
w 257 2.718282 0
w -258 0.367879 0
w 258 2.718282 0
w -259 0.367879 0
w 259 2.718282 0
w -261 0.367879 0
w 261 2.718282 0
w -262 0.367879 0
w 262 2.718282 0
w -263 0.367879 0
w 263 2.718282 0
w -265 0.367879 0
w 265 2.718282 0
w -267 0.367879 0
w 267 2.718282 0
w -268 0.367879 0
w 268 2.718282 0
w -269 0.367879 0
w 269 2.718282 0
w -270 0.367879 0
w 270 2.718282 0
w -272 0.367879 0
w 272 2.718282 0
w -273 0.367879 0
w 273 2.718282 0
w -274 0.367879 0
w 274 2.718282 0
w -277 0.367879 0
w 277 2.718282 0
w -280 0.367879 0
w 280 2.718282 0
w -282 0.367879 0
w 282 2.718282 0
w -284 0.367879 0
w 284 2.718282 0
w -285 0.367879 0
w 285 2.718282 0
w -286 0.367879 0
w 286 2.718282 0
w -288 0.367879 0
w 288 2.718282 0
w -290 0.367879 0
w 290 2.718282 0
w -291 0.367879 0
w 291 2.718282 0
w -292 0.367879 0
w 292 2.718282 0
w -294 0.367879 0
w 294 2.718282 0
w -295 0.367879 0
w 295 2.718282 0
w -296 0.367879 0
w 296 2.718282 0
w -297 0.367879 0
w 297 2.718282 0
w -299 0.367879 0
w 299 2.718282 0
w -300 0.367879 0
w 300 2.718282 0
w -302 0.367879 0
w 302 2.718282 0
w -304 0.367879 0
w 304 2.718282 0
w -306 0.367879 0
w 306 2.718282 0
w -307 0.367879 0
w 307 2.718282 0
w -309 0.367879 0
w 309 2.718282 0
w -310 0.367879 0
w 310 2.718282 0
w -313 0.367879 0
w 313 2.718282 0
w -316 0.367879 0
w 316 2.718282 0
w -317 0.367879 0
w 317 2.718282 0
w -319 0.367879 0
w 319 2.718282 0
w -320 0.367879 0
w 320 2.718282 0
w -322 0.367879 0
w 322 2.718282 0
w -323 0.367879 0
w 323 2.718282 0
w -324 0.367879 0
w 324 2.718282 0
w -326 0.367879 0
w 326 2.718282 0
w -327 0.367879 0
w 327 2.718282 0
w -329 0.367879 0
w 329 2.718282 0
w -330 0.367879 0
w 330 2.718282 0
w -334 0.367879 0
w 334 2.718282 0
w -337 0.367879 0
w 337 2.718282 0
w -339 0.367879 0
w 339 2.718282 0
w -340 0.367879 0
w 340 2.718282 0
w -342 0.367879 0
w 342 2.718282 0
w -343 0.367879 0
w 343 2.718282 0
w -344 0.367879 0
w 344 2.718282 0
w -348 0.367879 0
w 348 2.718282 0
w -350 0.367879 0
w 350 2.718282 0
w -351 0.367879 0
w 351 2.718282 0
w -352 0.367879 0
w 352 2.718282 0
w -359 0.367879 0
w 359 2.718282 0
w -360 0.367879 0
w 360 2.718282 0
w -361 0.367879 0
w 361 2.718282 0
w -363 0.367879 0
w 363 2.718282 0
w -365 0.367879 0
w 365 2.718282 0
w -367 0.367879 0
w 367 2.718282 0
w -369 0.367879 0
w 369 2.718282 0
w -370 0.367879 0
w 370 2.718282 0
w -372 0.367879 0
w 372 2.718282 0
w -374 0.367879 0
w 374 2.718282 0
w -379 0.367879 0
w 379 2.718282 0
w -380 0.367879 0
w 380 2.718282 0
w -385 0.367879 0
w 385 2.718282 0
w -386 0.367879 0
w 386 2.718282 0
2 1 91 0
2 -1 -91 0
-2 1 -91 0
-2 -1 91 0
3 1 143 0
3 -1 -143 0
-3 1 -143 0
-3 -1 143 0
4 1 260 0
4 -1 -260 0
-4 1 -260 0
-4 -1 260 0
5 1 378 0
5 -1 -378 0
-5 1 -378 0
-5 -1 378 0
7 6 194 0
7 -6 -194 0
-7 6 -194 0
-7 -6 194 0
8 6 202 0
8 -6 -202 0
-8 6 -202 0
-8 -6 202 0
9 6 223 0
9 -6 -223 0
-9 6 -223 0
-9 -6 223 0
10 6 249 0
10 -6 -249 0
-10 6 -249 0
-10 -6 249 0
12 11 50 0
12 -11 -50 0
-12 11 -50 0
-12 -11 50 0
13 11 131 0
13 -11 -131 0
-13 11 -131 0
-13 -11 131 0
14 11 206 0
14 -11 -206 0
-14 11 -206 0
-14 -11 206 0
16 15 199 0
16 -15 -199 0
-16 15 -199 0
-16 -15 199 0
17 15 298 0
17 -15 -298 0
-17 15 -298 0
-17 -15 298 0
18 15 312 0
18 -15 -312 0
-18 15 -312 0
-18 -15 312 0
19 15 315 0
19 -15 -315 0
-19 15 -315 0
-19 -15 315 0
20 15 336 0
20 -15 -336 0
-20 15 -336 0
-20 -15 336 0
21 15 358 0
21 -15 -358 0
-21 15 -358 0
-21 -15 358 0
22 15 383 0
22 -15 -383 0
-22 15 -383 0
-22 -15 383 0
23 15 394 0
23 -15 -394 0
-23 15 -394 0
-23 -15 394 0
25 24 97 0
25 -24 -97 0
-25 24 -97 0
-25 -24 97 0
26 24 250 0
26 -24 -250 0
-26 24 -250 0
-26 -24 250 0
27 24 264 0
27 -24 -264 0
-27 24 -264 0
-27 -24 264 0
28 24 328 0
28 -24 -328 0
-28 24 -328 0
-28 -24 328 0
29 24 345 0
29 -24 -345 0
-29 24 -345 0
-29 -24 345 0
30 24 364 0
30 -24 -364 0
-30 24 -364 0
-30 -24 364 0
32 31 213 0
32 -31 -213 0
-32 31 -213 0
-32 -31 213 0
33 31 249 0
33 -31 -249 0
-33 31 -249 0
-33 -31 249 0
34 31 314 0
34 -31 -314 0
-34 31 -314 0
-34 -31 314 0
35 31 346 0
35 -31 -346 0
-35 31 -346 0
-35 -31 346 0
37 36 254 0
37 -36 -254 0
-37 36 -254 0
-37 -36 254 0
38 36 354 0
38 -36 -354 0
-38 36 -354 0
-38 -36 354 0
40 39 133 0
40 -39 -133 0
-40 39 -133 0
-40 -39 133 0
41 39 366 0
41 -39 -366 0
-41 39 -366 0
-41 -39 366 0
43 42 123 0
43 -42 -123 0
-43 42 -123 0
-43 -42 123 0
44 42 206 0
44 -42 -206 0
-44 42 -206 0
-44 -42 206 0
45 42 281 0
45 -42 -281 0
-45 42 -281 0
-45 -42 281 0
46 42 362 0
46 -42 -362 0
-46 42 -362 0
-46 -42 362 0
48 47 138 0
48 -47 -138 0
-48 47 -138 0
-48 -47 138 0
49 47 303 0
49 -47 -303 0
-49 47 -303 0
-49 -47 303 0
51 50 174 0
51 -50 -174 0
-51 50 -174 0
-51 -50 174 0
52 50 260 0
52 -50 -260 0
-52 50 -260 0
-52 -50 260 0
53 50 311 0
53 -50 -311 0
-53 50 -311 0
-53 -50 311 0
54 50 314 0
54 -50 -314 0
-54 50 -314 0
-54 -50 314 0
55 50 378 0
55 -50 -378 0
-55 50 -378 0
-55 -50 378 0
57 56 184 0
57 -56 -184 0
-57 56 -184 0
-57 -56 184 0
58 56 235 0
58 -56 -235 0
-58 56 -235 0
-58 -56 235 0
59 56 331 0
59 -56 -331 0
-59 56 -331 0
-59 -56 331 0
60 56 391 0
60 -56 -391 0
-60 56 -391 0
-60 -56 391 0
62 61 109 0
62 -61 -109 0
-62 61 -109 0
-62 -61 109 0
63 61 209 0
63 -61 -209 0
-63 61 -209 0
-63 -61 209 0
64 61 235 0
64 -61 -235 0
-64 61 -235 0
-64 -61 235 0
65 61 279 0
65 -61 -279 0
-65 61 -279 0
-65 -61 279 0
66 61 332 0
66 -61 -332 0
-66 61 -332 0
-66 -61 332 0
68 67 130 0
68 -67 -130 0
-68 67 -130 0
-68 -67 130 0
69 67 161 0
69 -67 -161 0
-69 67 -161 0
-69 -67 161 0
70 67 336 0
70 -67 -336 0
-70 67 -336 0
-70 -67 336 0
72 71 143 0
72 -71 -143 0
-72 71 -143 0
-72 -71 143 0
73 71 281 0
73 -71 -281 0
-73 71 -281 0
-73 -71 281 0
76 75 82 0
76 -75 -82 0
-76 75 -82 0
-76 -75 82 0
77 75 209 0
77 -75 -209 0
-77 75 -209 0
-77 -75 209 0
78 75 264 0
78 -75 -264 0
-78 75 -264 0
-78 -75 264 0
79 75 293 0
79 -75 -293 0
-79 75 -293 0
-79 -75 293 0
80 75 353 0
80 -75 -353 0
-80 75 -353 0
-80 -75 353 0
81 75 391 0
81 -75 -391 0
-81 75 -391 0
-81 -75 391 0
83 82 174 0
83 -82 -174 0
-83 82 -174 0
-83 -82 174 0
84 82 188 0
84 -82 -188 0
-84 82 -188 0
-84 -82 188 0
85 82 209 0
85 -82 -209 0
-85 82 -209 0
-85 -82 209 0
86 82 279 0
86 -82 -279 0
-86 82 -279 0
-86 -82 279 0
87 82 391 0
87 -82 -391 0
-87 82 -391 0
-87 -82 391 0
89 88 308 0
89 -88 -308 0
-89 88 -308 0
-89 -88 308 0
90 88 376 0
90 -88 -376 0
-90 88 -376 0
-90 -88 376 0
92 91 138 0
92 -91 -138 0
-92 91 -138 0
-92 -91 138 0
93 91 209 0
93 -91 -209 0
-93 91 -209 0
-93 -91 209 0
94 91 266 0
94 -91 -266 0
-94 91 -266 0
-94 -91 266 0
95 91 325 0
95 -91 -325 0
-95 91 -325 0
-95 -91 325 0
96 91 355 0
96 -91 -355 0
-96 91 -355 0
-96 -91 355 0
98 97 314 0
98 -97 -314 0
-98 97 -314 0
-98 -97 314 0
99 97 358 0
99 -97 -358 0
-99 97 -358 0
-99 -97 358 0
100 97 368 0
100 -97 -368 0
-100 97 -368 0
-100 -97 368 0
101 97 392 0
101 -97 -392 0
-101 97 -392 0
-101 -97 392 0
103 102 164 0
103 -102 -164 0
-103 102 -164 0
-103 -102 164 0
104 102 358 0
104 -102 -358 0
-104 102 -358 0
-104 -102 358 0
105 102 375 0
105 -102 -375 0
-105 102 -375 0
-105 -102 375 0
107 106 237 0
107 -106 -237 0
-107 106 -237 0
-107 -106 237 0
108 106 321 0
108 -106 -321 0
-108 106 -321 0
-108 -106 321 0
110 109 202 0
110 -109 -202 0
-110 109 -202 0
-110 -109 202 0
111 109 281 0
111 -109 -281 0
-111 109 -281 0
-111 -109 281 0
113 112 147 0
113 -112 -147 0
-113 112 -147 0
-113 -112 147 0
114 112 174 0
114 -112 -174 0
-114 112 -174 0
-114 -112 174 0
115 112 213 0
115 -112 -213 0
-115 112 -213 0
-115 -112 213 0
116 112 318 0
116 -112 -318 0
-116 112 -318 0
-116 -112 318 0
117 112 347 0
117 -112 -347 0
-117 112 -347 0
-117 -112 347 0
119 118 289 0
119 -118 -289 0
-119 118 -289 0
-119 -118 289 0
120 118 338 0
120 -118 -338 0
-120 118 -338 0
-120 -118 338 0
121 118 357 0
121 -118 -357 0
-121 118 -357 0
-121 -118 357 0
122 118 368 0
122 -118 -368 0
-122 118 -368 0
-122 -118 368 0
124 123 161 0
124 -123 -161 0
-124 123 -161 0
-124 -123 161 0
125 123 276 0
125 -123 -276 0
-125 123 -276 0
-125 -123 276 0
126 123 345 0
126 -123 -345 0
-126 123 -345 0
-126 -123 345 0
127 123 357 0
127 -123 -357 0
-127 123 -357 0
-127 -123 357 0
128 123 362 0
128 -123 -362 0
-128 123 -362 0
-128 -123 362 0
129 123 364 0
129 -123 -364 0
-129 123 -364 0
-129 -123 364 0
132 131 240 0
132 -131 -240 0
-132 131 -240 0
-132 -131 240 0
134 133 184 0
134 -133 -184 0
-134 133 -184 0
-134 -133 184 0
136 135 356 0
136 -135 -356 0
-136 135 -356 0
-136 -135 356 0
137 135 366 0
137 -135 -366 0
-137 135 -366 0
-137 -135 366 0
139 138 220 0
139 -138 -220 0
-139 138 -220 0
-139 -138 220 0
140 138 279 0
140 -138 -279 0
-140 138 -279 0
-140 -138 279 0
141 138 283 0
141 -138 -283 0
-141 138 -283 0
-141 -138 283 0
142 138 331 0
142 -138 -331 0
-142 138 -331 0
-142 -138 331 0
144 143 158 0
144 -143 -158 0
-144 143 -158 0
-144 -143 158 0
145 143 249 0
145 -143 -249 0
-145 143 -249 0
-145 -143 249 0
146 143 325 0
146 -143 -325 0
-146 143 -325 0
-146 -143 325 0
148 147 254 0
148 -147 -254 0
-148 147 -254 0
-148 -147 254 0
149 147 260 0
149 -147 -260 0
-149 147 -260 0
-149 -147 260 0
150 147 275 0
150 -147 -275 0
-150 147 -275 0
-150 -147 275 0
151 147 382 0
151 -147 -382 0
-151 147 -382 0
-151 -147 382 0
152 147 392 0
152 -147 -392 0
-152 147 -392 0
-152 -147 392 0
154 153 223 0
154 -153 -223 0
-154 153 -223 0
-154 -153 223 0
155 153 260 0
155 -153 -260 0
-155 153 -260 0
-155 -153 260 0
156 153 358 0
156 -153 -358 0
-156 153 -358 0
-156 -153 358 0
157 153 377 0
157 -153 -377 0
-157 153 -377 0
-157 -153 377 0
159 158 264 0
159 -158 -264 0
-159 158 -264 0
-159 -158 264 0
160 158 373 0
160 -158 -373 0
-160 158 -373 0
-160 -158 373 0
162 161 194 0
162 -161 -194 0
-162 161 -194 0
-162 -161 194 0
163 161 378 0
163 -161 -378 0
-163 161 -378 0
-163 -161 378 0
165 164 237 0
165 -164 -237 0
-165 164 -237 0
-165 -164 237 0
166 164 287 0
166 -164 -287 0
-166 164 -287 0
-166 -164 287 0
167 164 362 0
167 -164 -362 0
-167 164 -362 0
-167 -164 362 0
168 164 395 0
168 -164 -395 0
-168 164 -395 0
-168 -164 395 0
170 169 279 0
170 -169 -279 0
-170 169 -279 0
-170 -169 279 0
171 169 298 0
171 -169 -298 0
-171 169 -298 0
-171 -169 298 0
172 169 336 0
172 -169 -336 0
-172 169 -336 0
-172 -169 336 0
173 169 373 0
173 -169 -373 0
-173 169 -373 0
-173 -169 373 0
175 174 223 0
175 -174 -223 0
-175 174 -223 0
-175 -174 223 0
176 174 252 0
176 -174 -252 0
-176 174 -252 0
-176 -174 252 0
177 174 276 0
177 -174 -276 0
-177 174 -276 0
-177 -174 276 0
178 174 331 0
178 -174 -331 0
-178 174 -331 0
-178 -174 331 0
179 174 376 0
179 -174 -376 0
-179 174 -376 0
-179 -174 376 0
181 180 220 0
181 -180 -220 0
-181 180 -220 0
-181 -180 220 0
182 180 355 0
182 -180 -355 0
-182 180 -355 0
-182 -180 355 0
183 180 387 0
183 -180 -387 0
-183 180 -387 0
-183 -180 387 0
185 184 355 0
185 -184 -355 0
-185 184 -355 0
-185 -184 355 0
186 184 390 0
186 -184 -390 0
-186 184 -390 0
-186 -184 390 0
187 184 394 0
187 -184 -394 0
-187 184 -394 0
-187 -184 394 0
189 188 206 0
189 -188 -206 0
-189 188 -206 0
-189 -188 206 0
190 188 220 0
190 -188 -220 0
-190 188 -220 0
-190 -188 220 0
191 188 235 0
191 -188 -235 0
-191 188 -235 0
-191 -188 235 0
192 188 301 0
192 -188 -301 0
-192 188 -301 0
-192 -188 301 0
193 188 362 0
193 -188 -362 0
-193 188 -362 0
-193 -188 362 0
195 194 271 0
195 -194 -271 0
-195 194 -271 0
-195 -194 271 0
196 194 315 0
196 -194 -315 0
-196 194 -315 0
-196 -194 315 0
197 194 333 0
197 -194 -333 0
-197 194 -333 0
-197 -194 333 0
198 194 364 0
198 -194 -364 0
-198 194 -364 0
-198 -194 364 0
200 199 312 0
200 -199 -312 0
-200 199 -312 0
-200 -199 312 0
201 199 375 0
201 -199 -375 0
-201 199 -375 0
-201 -199 375 0
203 202 249 0
203 -202 -249 0
-203 202 -249 0
-203 -202 249 0
204 202 293 0
204 -202 -293 0
-204 202 -293 0
-204 -202 293 0
205 202 391 0
205 -202 -391 0
-205 202 -391 0
-205 -202 391 0
207 206 375 0
207 -206 -375 0
-207 206 -375 0
-207 -206 375 0
208 206 388 0
208 -206 -388 0
-208 206 -388 0
-208 -206 388 0
210 209 279 0
210 -209 -279 0
-210 209 -279 0
-210 -209 279 0
211 209 281 0
211 -209 -281 0
-211 209 -281 0
-211 -209 281 0
212 209 357 0
212 -209 -357 0
-212 209 -357 0
-212 -209 357 0
214 213 264 0
214 -213 -264 0
-214 213 -264 0
-214 -213 264 0
216 215 237 0
216 -215 -237 0
-216 215 -237 0
-216 -215 237 0
217 215 346 0
217 -215 -346 0
-217 215 -346 0
-217 -215 346 0
218 215 357 0
218 -215 -357 0
-218 215 -357 0
-218 -215 357 0
219 215 396 0
219 -215 -396 0
-219 215 -396 0
-219 -215 396 0
222 221 357 0
222 -221 -357 0
-222 221 -357 0
-222 -221 357 0
224 223 229 0
224 -223 -229 0
-224 223 -229 0
-224 -223 229 0
225 223 249 0
225 -223 -249 0
-225 223 -249 0
-225 -223 249 0
226 223 254 0
226 -223 -254 0
-226 223 -254 0
-226 -223 254 0
227 223 303 0
227 -223 -303 0
-227 223 -303 0
-227 -223 303 0
228 223 362 0
228 -223 -362 0
-228 223 -362 0
-228 -223 362 0
230 229 281 0
230 -229 -281 0
-230 229 -281 0
-230 -229 281 0
231 229 287 0
231 -229 -287 0
-231 229 -287 0
-231 -229 287 0
232 229 345 0
232 -229 -345 0
-232 229 -345 0
-232 -229 345 0
233 229 382 0
233 -229 -382 0
-233 229 -382 0
-233 -229 382 0
234 229 394 0
234 -229 -394 0
-234 229 -394 0
-234 -229 394 0
236 235 362 0
236 -235 -362 0
-236 235 -362 0
-236 -235 362 0
238 237 311 0
238 -237 -311 0
-238 237 -311 0
-238 -237 311 0
239 237 347 0
239 -237 -347 0
-239 237 -347 0
-239 -237 347 0
241 240 275 0
241 -240 -275 0
-241 240 -275 0
-241 -240 275 0
242 240 341 0
242 -240 -341 0
-242 240 -341 0
-242 -240 341 0
243 240 373 0
243 -240 -373 0
-243 240 -373 0
-243 -240 373 0
244 240 381 0
244 -240 -381 0
-244 240 -381 0
-244 -240 381 0
246 245 276 0
246 -245 -276 0
-246 245 -276 0
-246 -245 276 0
247 245 388 0
247 -245 -388 0
-247 245 -388 0
-247 -245 388 0
248 245 389 0
248 -245 -389 0
-248 245 -389 0
-248 -245 389 0
251 250 333 0
251 -250 -333 0
-251 250 -333 0
-251 -250 333 0
253 252 394 0
253 -252 -394 0
-253 252 -394 0
-253 -252 394 0
255 254 375 0
255 -254 -375 0
-255 254 -375 0
-255 -254 375 0
257 256 264 0
257 -256 -264 0
-257 256 -264 0
-257 -256 264 0
258 256 375 0
258 -256 -375 0
-258 256 -375 0
-258 -256 375 0
259 256 396 0
259 -256 -396 0
-259 256 -396 0
-259 -256 396 0
261 260 312 0
261 -260 -312 0
-261 260 -312 0
-261 -260 312 0
262 260 383 0
262 -260 -383 0
-262 260 -383 0
-262 -260 383 0
263 260 389 0
263 -260 -389 0
-263 260 -389 0
-263 -260 389 0
265 264 279 0
265 -264 -279 0
-265 264 -279 0
-265 -264 279 0
267 266 315 0
267 -266 -315 0
-267 266 -315 0
-267 -266 315 0
268 266 347 0
268 -266 -347 0
-268 266 -347 0
-268 -266 347 0
269 266 389 0
269 -266 -389 0
-269 266 -389 0
-269 -266 389 0
270 266 393 0
270 -266 -393 0
-270 266 -393 0
-270 -266 393 0
272 271 287 0
272 -271 -287 0
-272 271 -287 0
-272 -271 287 0
273 271 332 0
273 -271 -332 0
-273 271 -332 0
-273 -271 332 0
274 271 375 0
274 -271 -375 0
-274 271 -375 0
-274 -271 375 0
277 276 393 0
277 -276 -393 0
-277 276 -393 0
-277 -276 393 0
280 279 305 0
280 -279 -305 0
-280 279 -305 0
-280 -279 305 0
282 281 328 0
282 -281 -328 0
-282 281 -328 0
-282 -281 328 0
284 283 312 0
284 -283 -312 0
-284 283 -312 0
-284 -283 312 0
285 283 336 0
285 -283 -336 0
-285 283 -336 0
-285 -283 336 0
286 283 355 0
286 -283 -355 0
-286 283 -355 0
-286 -283 355 0
288 287 293 0
288 -287 -293 0
-288 287 -293 0
-288 -287 293 0
290 289 335 0
290 -289 -335 0
-290 289 -335 0
-290 -289 335 0
291 289 375 0
291 -289 -375 0
-291 289 -375 0
-291 -289 375 0
292 289 388 0
292 -289 -388 0
-292 289 -388 0
-292 -289 388 0
294 293 338 0
294 -293 -338 0
-294 293 -338 0
-294 -293 338 0
295 293 358 0
295 -293 -358 0
-295 293 -358 0
-295 -293 358 0
296 293 383 0
296 -293 -383 0
-296 293 -383 0
-296 -293 383 0
297 293 391 0
297 -293 -391 0
-297 293 -391 0
-297 -293 391 0
299 298 328 0
299 -298 -328 0
-299 298 -328 0
-299 -298 328 0
300 298 384 0
300 -298 -384 0
-300 298 -384 0
-300 -298 384 0
302 301 346 0
302 -301 -346 0
-302 301 -346 0
-302 -301 346 0
304 303 377 0
304 -303 -377 0
-304 303 -377 0
-304 -303 377 0
306 305 332 0
306 -305 -332 0
-306 305 -332 0
-306 -305 332 0
307 305 353 0
307 -305 -353 0
-307 305 -353 0
-307 -305 353 0
309 308 345 0
309 -308 -345 0
-309 308 -345 0
-309 -308 345 0
310 308 393 0
310 -308 -393 0
-310 308 -393 0
-310 -308 393 0
313 312 371 0
313 -312 -371 0
-313 312 -371 0
-313 -312 371 0
316 315 354 0
316 -315 -354 0
-316 315 -354 0
-316 -315 354 0
317 315 389 0
317 -315 -389 0
-317 315 -389 0
-317 -315 389 0
319 318 366 0
319 -318 -366 0
-319 318 -366 0
-319 -318 366 0
320 318 390 0
320 -318 -390 0
-320 318 -390 0
-320 -318 390 0
322 321 338 0
322 -321 -338 0
-322 321 -338 0
-322 -321 338 0
323 321 358 0
323 -321 -358 0
-323 321 -358 0
-323 -321 358 0
324 321 390 0
324 -321 -390 0
-324 321 -390 0
-324 -321 390 0
326 325 368 0
326 -325 -368 0
-326 325 -368 0
-326 -325 368 0
327 325 377 0
327 -325 -377 0
-327 325 -377 0
-327 -325 377 0
329 328 366 0
329 -328 -366 0
-329 328 -366 0
-329 -328 366 0
330 328 396 0
330 -328 -396 0
-330 328 -396 0
-330 -328 396 0
334 333 390 0
334 -333 -390 0
-334 333 -390 0
-334 -333 390 0
337 336 378 0
337 -336 -378 0
-337 336 -378 0
-337 -336 378 0
339 338 364 0
339 -338 -364 0
-339 338 -364 0
-339 -338 364 0
340 338 391 0
340 -338 -391 0
-340 338 -391 0
-340 -338 391 0
342 341 349 0
342 -341 -349 0
-342 341 -349 0
-342 -341 349 0
343 341 356 0
343 -341 -356 0
-343 341 -356 0
-343 -341 356 0
344 341 393 0
344 -341 -393 0
-344 341 -393 0
-344 -341 393 0
348 347 388 0
348 -347 -388 0
-348 347 -388 0
-348 -347 388 0
350 349 366 0
350 -349 -366 0
-350 349 -366 0
-350 -349 366 0
351 349 377 0
351 -349 -377 0
-351 349 -377 0
-351 -349 377 0
352 349 394 0
352 -349 -394 0
-352 349 -394 0
-352 -349 394 0
359 358 371 0
359 -358 -371 0
-359 358 -371 0
-359 -358 371 0
360 358 375 0
360 -358 -375 0
-360 358 -375 0
-360 -358 375 0
361 358 383 0
361 -358 -383 0
-361 358 -383 0
-361 -358 383 0
363 362 371 0
363 -362 -371 0
-363 362 -371 0
-363 -362 371 0
365 364 391 0
365 -364 -391 0
-365 364 -391 0
-365 -364 391 0
367 366 384 0
367 -366 -384 0
-367 366 -384 0
-367 -366 384 0
369 368 383 0
369 -368 -383 0
-369 368 -383 0
-369 -368 383 0
370 368 395 0
370 -368 -395 0
-370 368 -395 0
-370 -368 395 0
372 371 387 0
372 -371 -387 0
-372 371 -387 0
-372 -371 387 0
374 373 378 0
374 -373 -378 0
-374 373 -378 0
-374 -373 378 0
379 378 394 0
379 -378 -394 0
-379 378 -394 0
-379 -378 394 0
380 378 396 0
380 -378 -396 0
-380 378 -396 0
-380 -378 396 0
385 384 393 0
385 -384 -393 0
-385 384 -393 0
-385 -384 393 0
386 384 394 0
386 -384 -394 0
-386 384 -394 0
-386 -384 394 0
